outputs/case_147.model.txt
violate_financial_or_business_management_rules = False
correction_ordered = False
fine_imposed = False
license_revoked = False
solicitation_handling_system_established = False
audit_system_established = False
solicitation_handling_system_executed = False
internal_control_executed = False
audit_system_executed = False
internal_control_established = False
violate_165_3_163_5 = True
serious_case = False
restriction_business_scope_executed = False
dismiss_manager_staff_executed = False
dismiss_director_supervisor_executed = False
deregistration_notified = False
violate_disclosure_or_explanation_rules = False
violate_consumer_understanding_or_suitability = False
violate_compensation_system_rules = False
violate_advertising_or_promotion_rules = False
director_supervisor_deregistration_done = False
dismiss_director_supervisor = False
violate_compensation_system = False
violate_advertising_rules = False
violate_internal_control = True
violate_disclosure_rules = False
violate_formal_condition = False
violate_any_finance_consumer_rule = False
violate_163_4_7_165_1_163_5_penalty = False
violate_163_4_7_165_1_163_5 = False
violate_understanding_and_suitability = False
penalty = False
penalty_fine_range = 0
agent_broker_penalty_scope = False
restriction_business_scope = False
dismiss_manager_staff = False
agent_broker_not_compliant = False
penalty_fine_range_extended = 0
other_measures_executed = False
violate_165_3_163_5_penalty = False
assist_create_formal_condition = False
agent_broker_violates_law_or_hinders_stable_operation = False